
Gurobi 9.5.1 (linux64, gurobi_cl) logging started Mon Jun 27 10:54:54 2022

Set parameter Username
Set parameter LogFile to value "gurobi.log"
Academic license - for non-commercial use only - expires 2023-06-10
Using license file /home/lucas/gurobi.lic
